c This is a random SAT instance with 10 variables and 20 clauses
p cnf 10 20
-8 -2 3 -6 -3 0
4 -1 0
-4 -9 2 -6 -1 0
5 -4 3 6 -1 0
-4 3 9 5 0
7 1 8 0
-5 7 -9 -6 -4 -10 8 -8 -2 0
2 7 -8 -5 -4 -7 8 3 -2 0
2 -10 9 1 -3 8 0
-1 -8 -6 7 6 5 0
-4 5 0
-10 6 -9 0
1 -2 3 7 -9 -7 0
-2 -8 -9 4 -10 0
5 -2 -7 7 -5 -1 -3 0
-6 10 5 -3 9 -5 1 0
-9 -10 -4 5 2 -2 0
9 0
10 6 1 9 -2 -1 -9 3 0
4 -9 10 1 -1 -2 -4 5 -7 0